Maximize

1 x_0 + 5 x_1 + 5 x_2 + 1 x_3 + 2 x_4 + 2 x_5 + 3 x_6 + 3 x_7 + 4 x_8 + 2 x_9


Subject To

a0: x_1 >= 1
a1: x_0 + x_1 + x_4 + x_5 + x_6 + x_9 >= 1
a2: x_0 + x_5 + x_8 >= 1
a3: x_4 + x_6 + x_7 >= 1
a4: x_3 >= 1
a5: x_0 + x_1 + x_2 + x_5 + x_7 + x_8 >= 1
a6: x_2 + x_8 >= 1
a7: x_2 + x_3 + x_4 + x_5 + x_6 + x_7 + x_8 >= 1
b0: x_0 + x_3 <= 1
b1: x_0 + x_7 <= 1
b2: x_1 + x_7 <= 1
b3: x_1 + x_9 <= 1
b4: x_2 + x_4 <= 1
b5: x_2 + x_6 <= 1
b6: x_2 + x_9 <= 1
b7: x_3 + x_0 <= 1
b8: x_3 + x_9 <= 1
b9: x_4 + x_2 <= 1
b10: x_5 + x_8 <= 1
b11: x_6 + x_2 <= 1
b12: x_6 + x_8 <= 1
b13: x_7 + x_0 <= 1
b14: x_7 + x_1 <= 1
b15: x_8 + x_5 <= 1
b16: x_8 + x_6 <= 1
b17: x_9 + x_1 <= 1
b18: x_9 + x_2 <= 1
b19: x_9 + x_3 <= 1
c0: 1797.9 x_0 + 1349.5 x_1 + 1033.2 x_2 + 1309.8 x_3 + 1558.6 x_4 + 1675.2 x_5 + 1997.4 x_6 + 1569.4 x_7 + 1967.6 x_8 + 1978.4 x_9 <= 10824




Binary

x_0 x_1 x_2 x_3 x_4 x_5 x_6 x_7 x_8 x_9

 


End
